&CONTROL
  calculation = 'bands',
  restart_mode = 'from_scratch',
  prefix = 'silicon',
  outdir = './tmp/'
  pseudo_dir = '.'
  verbosity = 'high'
/

&SYSTEM
  ibrav =  2,
  celldm(1) = 10.2076,
  nat =  2,
  ntyp = 1,
  ecutwfc = 50,
  ecutrho = 400,
  nbnd = 8,
!  occupations = 'smearing',
!  smearing = 'gaussian',
!  degauss = 0.005
/

&ELECTRONS
  conv_thr = 1e-7,
  mixing_beta = 0.3
/

ATOMIC_SPECIES
  Si 28.086 Si.UPF

ATOMIC_POSITIONS (alat)
  Si 0.0 0.0 0.0
  Si 0.25 0.25 0.25
K_POINTS crystal_b
5
  0.0000 0.5000 0.0000 10  !L
  0.0000 0.0000 0.0000 15  !G
  -0.500 0.0000 -0.500 5  !X
  -0.375 0.2500 -0.375 15  !U
  0.0000 0.0000 0.0000 0  !G
